language ESSENCE' 1.0
$ Minion SolverNodes: 27
$ Minion SolverTotalTime: 0.01288
$ Minion SolverTimeOut: 0
$ Savile Row TotalTime: 0.57
letting carrying be [8, 8, 5, 5, 0, 0, 3, 2, 2, 6, 6]
letting registers be [[-1, -1, -1, 5, 5, 5, 5, 5, 5, 6, 6]]
letting steps be [1, 1, 1, 4, 6, 2, 1, 6, 2, 7, 2]
